Geographic Exponential Decay
20 152 214 300 24 136 100 174 73 311 149 163 52 98 118 223 141 96 177 66 74
p edge 320 319
e 0 53 4.0
e 1 100 34.0
e 1 0 3.0
e 2 4 1.0
e 2 1 2.0
e 3 278 1.0
e 3 2 1.0
e 5 111 5.0
e 5 3 1.0
e 6 243 10.0
e 6 5 2.0
e 7 20 3.0
e 7 6 1.0
e 8 94 2.0
e 8 7 2.0
e 9 47 1.0
e 9 8 1.0
e 10 300 33.0
e 10 9 1.0
e 11 112 1.0
e 11 10 6.0
e 12 248 20.0
e 12 288 15.0
e 12 11 24.0
e 13 271 1.0
e 13 12 14.0
e 14 212 1.0
e 14 13 6.0
e 15 55 2.0
e 15 14 3.0
e 16 76 13.0
e 16 15 1.0
e 17 18 1.0
e 17 16 1.0
e 19 220 1.0
e 19 17 4.0
e 21 145 3.0
e 21 19 3.0
e 22 31 3.0
e 22 21 1.0
e 23 34 1.0
e 23 22 3.0
e 24 194 43.0
e 24 84 40.0
e 24 210 9.0
e 24 85 77.0
e 24 169 71.0
e 24 23 78.0
e 25 153 1.0
e 25 24 17.0
e 26 97 6.0
e 26 27 20.0
e 26 25 7.0
e 28 29 1.0
e 28 26 22.0
e 30 154 4.0
e 30 28 1.0
e 32 33 5.0
e 32 30 3.0
e 35 123 1.0
e 35 32 1.0
e 36 258 6.0
e 36 107 5.0
e 36 35 3.0
e 37 117 2.0
e 37 174 36.0
e 37 36 11.0
e 38 132 1.0
e 38 37 4.0
e 39 40 3.0
e 39 38 1.0
e 41 51 1.0
e 41 39 1.0
e 42 141 45.0
e 42 41 10.0
e 43 217 3.0
e 43 42 2.0
e 44 100 27.0
e 45 231 3.0
e 45 43 1.0
e 46 191 3.0
e 46 45 2.0
e 48 217 18.0
e 49 291 1.0
e 49 46 3.0
e 50 162 1.0
e 50 49 2.0
e 52 128 71.0
e 52 156 10.0
e 52 54 12.0
e 52 275 10.0
e 52 56 16.0
e 52 50 21.0
e 56 270 17.0
e 57 259 1.0
e 57 52 43.0
e 58 141 58.0
e 59 296 1.0
e 59 57 1.0
e 60 195 3.0
e 60 59 1.0
e 61 62 1.0
e 61 60 1.0
e 63 113 2.0
e 63 61 2.0
e 64 260 8.0
e 64 63 9.0
e 65 125 1.0
e 65 64 3.0
e 66 292 72.0
e 66 67 61.0
e 66 267 27.0
e 66 163 74.0
e 66 190 54.0
e 68 69 2.0
e 68 65 2.0
e 70 114 1.0
e 70 68 3.0
e 71 251 9.0
e 71 70 1.0
e 72 272 1.0
e 72 71 2.0
e 73 279 90.0
e 73 126 2.0
e 73 74 98.0
e 73 317 24.0
e 73 122 94.0
e 73 72 20.0
e 74 309 3.0
e 74 127 84.0
e 74 148 19.0
e 74 253 28.0
e 75 76 21.0
e 77 78 1.0
e 77 73 35.0
e 79 311 17.0
e 80 289 1.0
e 80 77 4.0
e 81 318 3.0
e 81 80 10.0
e 82 83 1.0
e 82 81 4.0
e 86 87 1.0
e 86 82 3.0
e 88 163 21.0
e 89 224 2.0
e 89 86 4.0
e 90 236 2.0
e 90 89 5.0
e 91 92 1.0
e 91 90 4.0
e 93 255 3.0
e 93 91 4.0
e 95 96 45.0
e 95 93 3.0
e 96 184 29.0
e 96 227 40.0
e 96 98 39.0
e 96 221 59.0
e 98 254 15.0
e 98 176 51.0
e 98 157 55.0
e 98 144 58.0
e 99 129 1.0
e 99 95 3.0
e 100 101 13.0
e 100 102 7.0
e 100 119 64.0
e 101 180 1.0
e 103 211 5.0
e 103 99 1.0
e 104 301 1.0
e 104 103 1.0
e 105 106 1.0
e 105 104 2.0
e 108 277 4.0
e 108 105 4.0
e 109 110 3.0
e 109 108 5.0
e 115 116 4.0
e 115 109 1.0
e 118 273 68.0
e 118 297 53.0
e 118 165 73.0
e 118 119 90.0
e 118 120 40.0
e 121 266 9.0
e 121 115 12.0
e 124 284 2.0
e 124 121 5.0
e 130 245 10.0
e 130 124 5.0
e 131 133 1.0
e 131 130 1.0
e 134 300 33.0
e 135 250 21.0
e 135 268 24.0
e 135 131 12.0
e 136 225 29.0
e 136 280 53.0
e 136 290 2.0
e 136 137 52.0
e 136 138 22.0
e 136 135 62.0
e 139 299 1.0
e 139 136 33.0
e 140 141 98.0
e 141 281 69.0
e 141 142 97.0
e 143 181 4.0
e 143 139 3.0
e 146 147 5.0
e 146 143 5.0
e 149 298 2.0
e 149 150 9.0
e 149 197 76.0
e 149 233 57.0
e 149 177 97.0
e 151 273 9.0
e 152 315 3.0
e 152 189 88.0
e 152 155 73.0
e 152 226 82.0
e 152 163 2.0
e 155 281 25.0
e 155 158 22.0
e 159 160 4.0
e 159 146 3.0
e 161 199 17.0
e 163 164 43.0
e 163 166 2.0
e 167 168 1.0
e 167 159 11.0
e 170 171 1.0
e 170 167 3.0
e 172 202 1.0
e 172 170 2.0
e 173 174 80.0
e 174 175 12.0
e 174 177 46.0
e 174 178 42.0
e 177 199 28.0
e 177 179 54.0
e 177 182 17.0
e 183 185 4.0
e 183 172 1.0
e 186 312 44.0
e 187 228 1.0
e 187 183 1.0
e 188 192 3.0
e 188 187 1.0
e 193 294 6.0
e 193 188 1.0
e 196 198 5.0
e 196 193 5.0
e 200 201 2.0
e 200 196 1.0
e 203 204 12.0
e 203 200 4.0
e 205 206 1.0
e 205 203 11.0
e 207 293 1.0
e 207 205 1.0
e 208 209 1.0
e 208 207 1.0
e 213 319 32.0
e 213 214 79.0
e 213 215 43.0
e 213 208 22.0
e 214 223 93.0
e 214 216 97.0
e 214 218 9.0
e 214 314 78.0
e 219 222 2.0
e 219 213 3.0
e 223 229 60.0
e 223 230 94.0
e 223 232 1.0
e 223 234 90.0
e 235 237 2.0
e 235 219 9.0
e 238 239 1.0
e 238 235 5.0
e 240 241 1.0
e 240 238 1.0
e 242 244 1.0
e 242 240 1.0
e 245 246 19.0
e 247 252 2.0
e 247 242 1.0
e 249 256 9.0
e 249 247 10.0
e 257 261 3.0
e 257 249 5.0
e 262 263 3.0
e 262 257 4.0
e 264 265 17.0
e 264 262 1.0
e 265 269 14.0
e 274 276 2.0
e 274 264 3.0
e 282 283 1.0
e 282 274 4.0
e 285 286 3.0
e 285 282 7.0
e 287 302 11.0
e 287 285 8.0
e 295 300 17.0
e 300 303 89.0
e 300 304 37.0
e 304 305 10.0
e 306 307 1.0
e 306 287 7.0
e 308 310 1.0
e 308 306 1.0
e 311 312 56.0
e 311 313 97.0
e 311 315 97.0
e 311 316 2.0
